(set-info :smt-lib-version 2.6)
(set-logic QF_UFLIA)
(set-info :source |
Generated by: Geoff Sutcliffe
Generated on: 2026-03-11
Generator: TPTPWorld
Application: Benchmarking automated theorem provers
Time limit: 120.0

These benchmarks are translations from the TPTP Library (Thousands of
Problems for Theorem Provers), see http://www.cs.miami.edu/~tptp/

The TPTP is maintained by Geoff Sutcliffe, and he contributed this
selection of benchmarks to SMT-LIB.  They were exported from the
v9.2.1 realease of TPTP.
|)
(set-info :category "industrial")
(set-info :status "unknown")
; SZS status Success
(declare-sort $$unsorted 0)
(declare-fun tptp.x6 () Int)
(declare-fun tptp.x5 () Int)
(declare-fun tptp.x3 () Int)
(declare-fun tptp.x4 () Int)
(declare-fun tptp.x2 () Int)
(assert (= tptp.x6 0))
(assert (= (+ (* 2 tptp.x5) (* 1 tptp.x3)) 0))
(assert (= (+ (* 5 tptp.x4) (* 3 tptp.x2)) 0))
(assert (= (+ (* 7 tptp.x3) (* 11 tptp.x2)) 0))
(check-sat)
